workspace_BA/ba-solver/src/main/resources/input_graphs/reference_set_d2/bara_alb_n_80_m_2_2.gr
p td 80 156
0 2
0 16
0 28
1 2
1 3
1 5
1 7
1 8
1 11
1 12
1 21
1 22
1 23
1 27
1 28
1 34
1 44
1 47
1 65
1 66
1 68
1 73
2 3
2 4
2 8
2 9
2 10
2 12
2 13
2 14
2 15
2 17
2 18
2 20
2 21
2 31
2 32
2 33
2 35
2 37
2 38
2 40
2 42
2 43
2 50
2 51
2 53
2 58
2 64
2 68
2 70
2 72
2 75
2 77
3 4
3 13
3 15
3 18
3 19
3 35
3 36
3 44
3 48
3 61
3 77
3 78
4 5
4 6
5 6
5 7
5 9
5 11
5 47
5 53
6 10
7 20
7 24
7 43
8 19
9 17
9 22
9 23
9 26
9 39
11 38
11 55
13 14
13 40
13 41
13 60
14 16
14 36
14 49
14 50
14 54
14 56
15 25
15 31
15 39
15 55
15 62
15 71
16 25
16 65
17 57
18 69
19 63
20 26
20 75
20 78
21 30
21 32
21 54
22 24
23 27
23 30
23 46
23 72
23 79
24 29
24 33
24 34
26 29
26 71
26 74
27 58
27 59
27 67
27 73
27 74
28 76
33 42
33 49
34 37
34 41
34 45
34 59
34 62
36 51
37 57
42 46
42 63
42 79
44 45
44 52
44 56
44 64
45 48
45 52
48 67
48 69
54 60
54 66
57 70
58 61
60 76
